p cnf 7230 17
480 -798 0
482 -804 0
-482 -802 803 0
-480 -796 797 0
480 -801 0
-480 -799 800 0
-803 804 0
-797 798 0
802 -804 0
-800 801 0
799 -801 0
796 -798 0
-482 -805 807 0
-794 795 0
794 -795 0
805 -807 0
482 -807 0
